benchmarks_CP/INST_36x36/35/inst36x36_35_55.dzn
S=6;
start=[|
-1,	-1,	-1,	6,	-1,	-1,	-1,	29,	33,	-1,	5,	-1,	-1,	17,	-1,	21,	22,	-1,	-1,	-1,	23,	16,	18,	-1,	-1,	-1,	-1,	2,	11,	-1,	-1,	-1,	-1,	-1,	28,	31|
-1,	26,	-1,	5,	-1,	29,	4,	9,	11,	-1,	-1,	30,	-1,	15,	-1,	-1,	-1,	-1,	-1,	-1,	-1,	-1,	-1,	-1,	-1,	-1,	-1,	31,	20,	18,	7,	-1,	14,	-1,	-1,	23|
21,	-1,	-1,	32,	-1,	-1,	7,	-1,	-1,	-1,	6,	14,	33,	-1,	35,	-1,	-1,	-1,	-1,	22,	12,	-1,	-1,	-1,	-1,	-1,	-1,	-1,	26,	-1,	-1,	-1,	-1,	11,	-1,	18|
-1,	-1,	17,	27,	-1,	-1,	22,	-1,	-1,	-1,	-1,	36,	5,	-1,	-1,	-1,	-1,	30,	-1,	-1,	-1,	-1,	21,	-1,	19,	7,	-1,	-1,	-1,	14,	-1,	20,	15,	-1,	-1,	-1|
-1,	14,	-1,	-1,	-1,	16,	-1,	-1,	-1,	-1,	-1,	-1,	-1,	2,	10,	24,	6,	36,	-1,	-1,	-1,	25,	-1,	-1,	-1,	5,	1,	12,	-1,	-1,	9,	3,	-1,	21,	-1,	33|
25,	-1,	-1,	-1,	8,	15,	-1,	-1,	-1,	18,	19,	-1,	-1,	-1,	-1,	-1,	26,	-1,	-1,	-1,	-1,	-1,	30,	-1,	-1,	6,	-1,	-1,	27,	-1,	-1,	-1,	-1,	2,	-1,	29|
-1,	-1,	-1,	-1,	-1,	-1,	-1,	-1,	-1,	-1,	-1,	3,	-1,	29,	-1,	-1,	-1,	-1,	-1,	30,	1,	8,	-1,	-1,	-1,	-1,	-1,	-1,	-1,	-1,	11,	25,	32,	-1,	9,	-1|
-1,	22,	23,	11,	-1,	27,	-1,	-1,	-1,	-1,	-1,	-1,	34,	-1,	19,	16,	-1,	15,	-1,	-1,	2,	-1,	36,	-1,	18,	-1,	-1,	-1,	-1,	25,	-1,	-1,	26,	-1,	-1,	-1|
-1,	-1,	-1,	30,	-1,	-1,	-1,	35,	-1,	-1,	-1,	23,	8,	11,	-1,	-1,	-1,	-1,	-1,	33,	-1,	-1,	20,	6,	-1,	9,	21,	5,	-1,	-1,	-1,	-1,	28,	-1,	-1,	-1|
-1,	-1,	1,	-1,	-1,	-1,	30,	13,	-1,	-1,	34,	22,	9,	-1,	-1,	-1,	-1,	35,	24,	-1,	28,	11,	32,	-1,	-1,	-1,	-1,	-1,	-1,	-1,	23,	15,	16,	5,	-1,	19|
-1,	-1,	-1,	26,	-1,	-1,	-1,	-1,	20,	-1,	-1,	-1,	23,	-1,	1,	-1,	-1,	12,	-1,	-1,	-1,	-1,	22,	-1,	28,	-1,	-1,	-1,	33,	-1,	-1,	-1,	-1,	-1,	30,	36|
-1,	-1,	7,	14,	-1,	-1,	-1,	31,	28,	26,	9,	-1,	-1,	30,	-1,	-1,	-1,	24,	12,	-1,	-1,	-1,	-1,	15,	29,	-1,	-1,	-1,	23,	1,	-1,	-1,	-1,	-1,	-1,	-1|
27,	36,	-1,	-1,	19,	17,	-1,	-1,	29,	-1,	-1,	-1,	26,	21,	-1,	2,	-1,	-1,	-1,	-1,	13,	-1,	-1,	-1,	-1,	-1,	31,	-1,	-1,	-1,	-1,	-1,	-1,	-1,	11,	-1|
-1,	-1,	2,	13,	-1,	-1,	-1,	-1,	22,	-1,	-1,	8,	-1,	-1,	-1,	-1,	-1,	-1,	-1,	-1,	-1,	-1,	4,	29,	26,	-1,	27,	30,	19,	-1,	-1,	-1,	1,	14,	-1,	9|
-1,	29,	-1,	-1,	6,	-1,	-1,	27,	-1,	16,	12,	-1,	-1,	4,	-1,	19,	14,	-1,	-1,	-1,	-1,	-1,	33,	25,	-1,	18,	-1,	-1,	24,	-1,	-1,	30,	-1,	-1,	-1,	-1|
8,	30,	-1,	-1,	25,	22,	-1,	-1,	-1,	-1,	-1,	15,	3,	-1,	-1,	-1,	-1,	6,	-1,	23,	-1,	10,	17,	-1,	13,	-1,	-1,	-1,	29,	12,	-1,	-1,	-1,	18,	24,	-1|
-1,	-1,	15,	7,	-1,	-1,	9,	-1,	36,	-1,	-1,	1,	10,	-1,	24,	34,	-1,	22,	16,	-1,	-1,	-1,	-1,	-1,	-1,	-1,	-1,	-1,	-1,	-1,	19,	-1,	-1,	-1,	-1,	-1|
-1,	12,	9,	-1,	-1,	-1,	-1,	-1,	17,	14,	-1,	19,	36,	-1,	-1,	30,	1,	8,	-1,	-1,	-1,	-1,	26,	-1,	-1,	-1,	6,	35,	4,	-1,	5,	21,	-1,	29,	-1,	13|
-1,	-1,	25,	-1,	32,	-1,	19,	1,	-1,	-1,	-1,	-1,	4,	-1,	13,	3,	12,	34,	8,	-1,	29,	-1,	14,	-1,	-1,	-1,	22,	-1,	-1,	-1,	-1,	-1,	-1,	-1,	-1,	-1|
-1,	20,	6,	2,	-1,	-1,	-1,	22,	-1,	29,	-1,	31,	19,	-1,	7,	-1,	-1,	14,	-1,	34,	-1,	-1,	-1,	-1,	30,	-1,	26,	-1,	-1,	-1,	35,	-1,	3,	13,	-1,	-1|
-1,	-1,	26,	-1,	-1,	-1,	14,	-1,	-1,	-1,	-1,	28,	-1,	16,	-1,	8,	-1,	-1,	27,	13,	24,	-1,	-1,	-1,	36,	4,	-1,	-1,	35,	-1,	-1,	-1,	23,	-1,	-1,	-1|
34,	-1,	13,	12,	-1,	-1,	-1,	32,	-1,	-1,	7,	17,	2,	-1,	-1,	-1,	-1,	-1,	-1,	-1,	-1,	-1,	-1,	-1,	-1,	-1,	-1,	29,	-1,	-1,	-1,	10,	6,	-1,	-1,	11|
35,	-1,	36,	22,	-1,	4,	-1,	-1,	-1,	-1,	-1,	-1,	30,	31,	-1,	-1,	20,	-1,	5,	-1,	10,	-1,	9,	-1,	-1,	2,	3,	-1,	-1,	-1,	-1,	-1,	-1,	-1,	-1,	-1|
-1,	-1,	-1,	-1,	-1,	-1,	-1,	16,	-1,	-1,	35,	-1,	-1,	-1,	-1,	-1,	-1,	-1,	-1,	36,	17,	-1,	-1,	-1,	-1,	-1,	-1,	-1,	-1,	-1,	-1,	-1,	34,	-1,	25,	-1|
36,	-1,	-1,	-1,	-1,	2,	-1,	-1,	32,	-1,	-1,	35,	-1,	-1,	-1,	-1,	-1,	-1,	-1,	9,	30,	-1,	-1,	26,	-1,	-1,	-1,	-1,	-1,	-1,	-1,	19,	-1,	-1,	-1,	-1|
-1,	-1,	-1,	-1,	13,	-1,	-1,	-1,	-1,	7,	-1,	-1,	-1,	9,	-1,	-1,	-1,	-1,	-1,	-1,	18,	35,	-1,	34,	32,	-1,	-1,	-1,	17,	27,	-1,	-1,	-1,	-1,	21,	-1|
15,	6,	-1,	16,	9,	-1,	34,	-1,	-1,	-1,	-1,	-1,	7,	3,	2,	-1,	-1,	17,	21,	32,	-1,	-1,	-1,	5,	12,	-1,	-1,	36,	-1,	-1,	33,	29,	24,	-1,	-1,	20|
-1,	32,	-1,	-1,	-1,	-1,	-1,	-1,	-1,	13,	-1,	25,	-1,	19,	-1,	15,	-1,	-1,	23,	-1,	-1,	2,	11,	33,	24,	-1,	34,	-1,	-1,	28,	-1,	-1,	4,	9,	-1,	-1|
31,	-1,	-1,	24,	5,	25,	-1,	-1,	-1,	-1,	8,	11,	-1,	-1,	-1,	-1,	21,	-1,	-1,	-1,	14,	3,	-1,	13,	-1,	-1,	4,	-1,	-1,	29,	30,	-1,	-1,	28,	-1,	-1|
11,	27,	29,	-1,	33,	-1,	-1,	-1,	-1,	-1,	-1,	-1,	25,	36,	18,	-1,	-1,	-1,	1,	-1,	7,	-1,	-1,	-1,	-1,	3,	-1,	23,	13,	8,	32,	-1,	-1,	-1,	26,	-1|
-1,	-1,	-1,	15,	-1,	10,	1,	-1,	5,	22,	-1,	-1,	20,	-1,	34,	-1,	-1,	-1,	-1,	14,	-1,	-1,	-1,	-1,	-1,	-1,	-1,	25,	12,	24,	31,	-1,	-1,	4,	-1,	-1|
-1,	2,	-1,	35,	-1,	-1,	12,	23,	-1,	-1,	-1,	6,	-1,	-1,	-1,	-1,	15,	-1,	29,	27,	32,	-1,	5,	-1,	33,	-1,	30,	-1,	36,	-1,	-1,	-1,	13,	-1,	-1,	-1|
19,	-1,	-1,	8,	-1,	32,	-1,	-1,	21,	-1,	-1,	-1,	24,	-1,	-1,	-1,	2,	29,	30,	-1,	20,	-1,	-1,	-1,	-1,	-1,	-1,	17,	-1,	-1,	12,	-1,	33,	-1,	1,	3|
-1,	9,	-1,	-1,	31,	33,	-1,	-1,	-1,	-1,	-1,	4,	-1,	-1,	-1,	35,	-1,	-1,	11,	8,	26,	-1,	-1,	2,	22,	-1,	-1,	18,	-1,	-1,	-1,	28,	-1,	-1,	-1,	-1|
-1,	34,	-1,	-1,	7,	6,	8,	33,	-1,	-1,	-1,	-1,	-1,	-1,	36,	28,	-1,	-1,	-1,	-1,	-1,	-1,	-1,	-1,	4,	-1,	-1,	11,	2,	-1,	-1,	5,	-1,	-1,	-1,	-1|
26,	-1,	-1,	-1,	-1,	-1,	-1,	10,	16,	-1,	-1,	-1,	14,	-1,	8,	-1,	-1,	-1,	-1,	-1,	33,	-1,	-1,	-1,	27,	-1,	-1,	-1,	-1,	-1,	-1,	-1,	19,	6,	-1,	2|];
